; ./prepared/seahorn/./sv_comp_flat_small/ldv-consumption/32_7a_cilled_true-unreach-call_linux-3.8-rc1-drivers--media--usb--b2c2--b2c2-flexcop-usb.ko-main.cil.out.c.flat_000.smt2
(set-logic HORN)


(declare-fun |main_1| ( Int Int Int Int ) Bool)

(assert
  (forall ( (A Int) (B Int) (C Int) (v_3 Int) ) 
    (=>
      (and
        (and true (= 0 v_3))
      )
      (main_1 v_3 A B C)
    )
  )
)
(assert
  (forall ( (A Int) (B Int) (C Int) (D Bool) (E Bool) (F Bool) (G Int) (H Int) (I Int) (J Int) (K Int) (L Int) (v_12 Int) (v_13 Int) ) 
    (=>
      (and
        (main_1 v_12 A B C)
        (and (= 0 v_12)
     (or (= J G) (not F) (not D))
     (or (= I 0) (not F) (not D))
     (or (= H 0) (not F) (not D))
     (or (= L I) (not F) (not D))
     (or (= K H) (not F) (not D))
     (or (not E) (and D F))
     (= E true)
     (or (= G 1) (not F) (not D))
     (= 1 v_13))
      )
      (main_1 v_13 J K L)
    )
  )
)
(assert
  (forall ( (A Bool) (B Int) (C Int) (D Int) (E Bool) (F Int) (G Int) (H Bool) (I Int) (J Bool) (K Bool) (L Int) (M Bool) (N Bool) (O Int) (P Bool) (Q Int) (R Int) (S Bool) (T Int) (U Int) (V Bool) (W Int) (X Int) (Y Bool) (Z Int) (A1 Bool) (B1 Int) (C1 Int) (D1 Int) (E1 Int) (F1 Int) (G1 Int) (H1 Int) (I1 Int) (J1 Int) (K1 Int) (L1 Int) (M1 Int) (N1 Int) (O1 Int) (P1 Int) (Q1 Int) (R1 Int) (S1 Int) (T1 Int) (U1 Int) (V1 Int) (W1 Int) (X1 Int) (Y1 Int) (Z1 Int) (A2 Int) (B2 Bool) (C2 Int) (D2 Int) (E2 Int) (F2 Int) (G2 Int) (H2 Int) (I2 Int) (J2 Int) (K2 Int) (L2 Int) (M2 Int) (N2 Int) (O2 Int) (P2 Int) (Q2 Int) (R2 Int) (S2 Int) (T2 Int) (U2 Int) (V2 Int) (W2 Int) (X2 Int) (Y2 Int) (Z2 Int) (A3 Int) (B3 Int) (C3 Bool) (D3 Int) (E3 Int) (F3 Int) (G3 Int) (H3 Int) (I3 Int) (J3 Int) (K3 Int) (L3 Int) (M3 Int) (N3 Int) (O3 Int) (P3 Int) (Q3 Int) (R3 Int) (S3 Int) (T3 Int) (U3 Int) (V3 Int) (W3 Int) (X3 Int) (Y3 Int) (Z3 Int) (A4 Int) (B4 Int) (C4 Bool) (D4 Int) (E4 Int) (F4 Int) (G4 Int) (H4 Int) (I4 Int) (J4 Int) (K4 Int) (L4 Int) (M4 Int) (N4 Int) (O4 Int) (P4 Int) (Q4 Int) (R4 Int) (S4 Int) (T4 Int) (U4 Int) (V4 Int) (W4 Int) (X4 Int) (Y4 Int) (Z4 Int) (A5 Int) (B5 Int) (C5 Bool) (D5 Int) (E5 Int) (F5 Int) (G5 Int) (H5 Bool) (I5 Int) (J5 Int) (K5 Bool) (L5 Int) (M5 Int) (N5 Bool) (O5 Int) (P5 Int) (Q5 Int) (R5 Bool) (S5 Int) (T5 Int) (U5 Int) (V5 Int) (W5 Bool) (X5 Int) (Y5 Int) (Z5 Int) (A6 Int) (B6 Bool) (C6 Int) (D6 Int) (E6 Bool) (F6 Int) (G6 Bool) (H6 Bool) (I6 Int) (J6 Int) (K6 Int) (L6 Int) (M6 Int) (N6 Int) (O6 Int) (P6 Int) (Q6 Int) (R6 Int) (S6 Bool) (T6 Int) (U6 Int) (V6 Int) (W6 Int) (X6 Bool) (Y6 Bool) (Z6 Bool) (A7 Int) (B7 Int) (C7 Int) (D7 Int) (E7 Int) (F7 Int) (G7 Int) (H7 Int) (I7 Int) (J7 Int) (K7 Int) (L7 Int) (M7 Int) (N7 Int) (O7 Int) (P7 Int) (Q7 Int) (R7 Int) (S7 Bool) (T7 Bool) (U7 Bool) (V7 Bool) (W7 Bool) (X7 Int) (Y7 Int) (Z7 Int) (A8 Int) (B8 Int) (C8 Int) (D8 Int) (E8 Int) (F8 Bool) (G8 Int) (H8 Int) (I8 Int) (J8 Int) (K8 Int) (L8 Bool) (M8 Bool) (N8 Int) (O8 Bool) (P8 Bool) (Q8 Int) (R8 Int) (S8 Int) (T8 Bool) (U8 Int) (V8 Int) (W8 Int) (X8 Bool) (Y8 Int) (Z8 Int) (A9 Int) (B9 Bool) (C9 Int) (D9 Int) (E9 Int) (F9 Bool) (G9 Int) (H9 Int) (I9 Int) (J9 Bool) (K9 Bool) (L9 Bool) (M9 Bool) (N9 Bool) (O9 Bool) (P9 Bool) (Q9 Bool) (R9 Bool) (S9 Bool) (T9 Bool) (U9 Bool) (V9 Int) (W9 Bool) (X9 Bool) (Y9 Bool) (Z9 Bool) (A10 Bool) (B10 Bool) (C10 Int) (D10 Int) (E10 Int) (F10 Bool) (G10 Int) (H10 Int) (I10 Int) (J10 Bool) (K10 Int) (L10 Int) (M10 Int) (N10 Int) (O10 Int) (P10 Int) (Q10 Int) (R10 Bool) (S10 Bool) (T10 Bool) (U10 Bool) (V10 Int) (W10 Bool) (X10 Bool) (Y10 Bool) (Z10 Bool) (A11 Bool) (B11 Bool) (C11 Bool) (D11 Bool) (E11 Bool) (F11 Bool) (G11 Bool) (H11 Bool) (I11 Int) (J11 Bool) (K11 Bool) (L11 Bool) (M11 Bool) (N11 Int) (O11 Bool) (P11 Bool) (Q11 Bool) (R11 Bool) (S11 Bool) (T11 Bool) (U11 Bool) (V11 Bool) (W11 Bool) (X11 Bool) (Y11 Bool) (Z11 Bool) (A12 Bool) (B12 Bool) (C12 Bool) (D12 Bool) (E12 Bool) (F12 Bool) (G12 Bool) (H12 Bool) (I12 Bool) (J12 Bool) (K12 Int) (L12 Bool) (M12 Bool) (N12 Bool) (O12 Bool) (P12 Bool) (Q12 Bool) (R12 Bool) (S12 Bool) (T12 Bool) (U12 Bool) (V12 Bool) (W12 Int) (X12 Bool) (Y12 Bool) (Z12 Bool) (A13 Bool) (B13 Int) (C13 Int) (D13 Bool) (E13 Bool) (F13 Int) (G13 Int) (H13 Bool) (I13 Bool) (J13 Bool) (K13 Bool) (L13 Bool) (M13 Bool) (N13 Bool) (O13 Bool) (P13 Bool) (Q13 Bool) (R13 Bool) (S13 Bool) (T13 Bool) (U13 Int) (V13 Int) (W13 Bool) (X13 Bool) (Y13 Bool) (Z13 Bool) (A14 Bool) (B14 Bool) (C14 Bool) (D14 Bool) (E14 Bool) (F14 Bool) (G14 Bool) (H14 Bool) (I14 Bool) (J14 Bool) (K14 Bool) (L14 Bool) (M14 Int) (N14 Int) (O14 Bool) (P14 Bool) (Q14 Int) (R14 Bool) (S14 Bool) (T14 Int) (U14 Bool) (V14 Bool) (W14 Int) (X14 Bool) (Y14 Bool) (Z14 Bool) (A15 Bool) (B15 Bool) (C15 Int) (D15 Int) (E15 Int) (F15 Int) (G15 Int) (H15 Int) (I15 Int) (J15 Int) (K15 Bool) (L15 Bool) (M15 Bool) (N15 Bool) (O15 Bool) (P15 Bool) (Q15 Bool) (R15 Int) (S15 Int) (T15 Int) (U15 Int) (V15 Int) (W15 Bool) (X15 Bool) (Y15 Bool) (Z15 Bool) (A16 Bool) (B16 Bool) (C16 Int) (D16 Int) (E16 Int) (F16 Bool) (G16 Bool) (H16 Bool) (I16 Bool) (J16 Bool) (K16 Bool) (L16 Bool) (M16 Bool) (N16 Bool) (O16 Bool) (P16 Bool) (Q16 Bool) (R16 Bool) (S16 Bool) (T16 Bool) (U16 Bool) (V16 Bool) (W16 Int) (X16 Bool) (Y16 Bool) (Z16 Bool) (A17 Bool) (B17 Bool) (C17 Bool) (D17 Bool) (E17 Bool) (F17 Bool) (G17 Bool) (H17 Bool) (I17 Bool) (J17 Bool) (K17 Bool) (L17 Int) (M17 Bool) (N17 Bool) (O17 Bool) (P17 Bool) (Q17 Bool) (R17 Bool) (S17 Bool) (T17 Bool) (U17 Bool) (V17 Bool) (W17 Bool) (X17 Bool) (Y17 Bool) (Z17 Bool) (A18 Bool) (B18 Bool) (C18 Bool) (D18 Bool) (E18 Bool) (F18 Bool) (G18 Bool) (H18 Bool) (I18 Bool) (J18 Bool) (K18 Bool) (L18 Bool) (M18 Bool) (N18 Bool) (O18 Bool) (P18 Bool) (Q18 Bool) (R18 Bool) (S18 Bool) (T18 Bool) (U18 Bool) (V18 Bool) (W18 Bool) (X18 Int) (Y18 Int) (Z18 Int) (A19 Int) (B19 Int) (C19 Int) (D19 Int) (E19 Int) (F19 Int) (G19 Int) (H19 Int) (I19 Int) (J19 Int) (K19 Int) (L19 Int) (M19 Int) (N19 Int) (O19 Int) (P19 Int) (Q19 Int) (R19 Int) (S19 Int) (T19 Int) (U19 Int) (V19 Int) (W19 Int) (X19 Int) (Y19 Int) (Z19 Int) (A20 Int) (B20 Int) (C20 Int) (D20 Int) (E20 Int) (F20 Int) (G20 Int) (H20 Bool) (I20 Bool) (v_529 Int) (v_530 Int) ) 
    (=>
      (and
        (main_1 v_529 G10 H10 I10)
        (let ((a!1 (or (not A14) (not (= (<= 16777215 V5) W5))))
      (a!2 (or (not W13) (not (= (= F6 0) G6))))
      (a!3 (or (not D13) (not (= (<= 2 G13) S7))))
      (a!4 (or (not G11) (not (= (<= 1 I11) N9))))
      (a!5 (or (not E11) (not (= (= Q10 0) O9))))
      (a!6 (or (not T10) (not (= (<= 1 V10) A10))))
      (a!7 (or (not H13) (not (= (<= 3 G13) Z6)))))
  (and (= 1 v_529)
       (or (not K18)
           (and I17 Q18)
           (and E18 R18)
           (and I18 S18)
           (and W18 R10)
           (and V18 E11)
           (and U18 J11)
           (and T18 X12)
           (and P18 S12)
           (and O18 W10)
           (and N18 A11)
           (and M18 C11)
           (and L18 Y10))
       (or (and X14 P15) (not M15) (and Q15 E14) (and O15 G14) (and N15 I14))
       (or (and U14 Y14) (and R14 Z14) (and K14 A15) (and O14 B15) (not X14))
       (or (and Y13 N17) (not M17) (and P17 S13) (and O17 W13))
       (or (and W15 Z15) (and M15 A16) (and C14 B16) (not Y15))
       (or (and F12 T12) (and Q12 U12) (and N12 V12) (not S12))
       (or (not E18) (and U17 F18) (and Z17 G18) (and C18 H18))
       (or (not Q17) (and E17 R17) (and S17 A14) (and T17 M17))
       (or (not E17) (and H17 Z16) (and F17 R16) (and G17 C17))
       (or (and X16 A17) (and U16 B17) (not Z16))
       (or (not R16) (and T16 M16) (and S16 P16))
       (or (and K16 N16) (and H16 O16) (not M16))
       (or (= S5 E16) (not C14) (not B16))
       (or (not C14) (= E16 (- 12)) (not B16))
       (or (and L13 Q13) (and N13 R13) (not P13))
       (or (and D12 G12) (and A12 H12) (not F12))
       (or (and T11 W11) (and Q11 X11) (not V11))
       (or F10 (not J10) (not F11))
       (or (not F10) (not J10) (not S10))
       (or B10 (not R10) (not U10))
       (or A10 (not T10) (not B11))
       (or (not A10) (not T10) (not X10))
       (or Z9 (not W10) (not Z10))
       (or U9 (not A11) (not D11))
       (or (not Q9) (not E11) (not H11))
       (or N9 (not G11) (not Y12))
       (or (not N9) (not G11) (not K11))
       (or M9 (not J11) (not M11))
       (or B9 (not V11) (not C12))
       (or (not B9) (not V11) (not Z11))
       (or T8 (not F12) (not T12))
       (or (not P8) (not I12) (not M12))
       (or W7 (not X12) (not A13))
       (or (not T7) (not Z12) (not E13))
       (or X6 (not P13) (not T13))
       (or E6 (not Y13) (not N17))
       (or (not B6) (not A14) (not D14))
       (or R5 (not C14) (not B16))
       (or (not K5) (not G14) (not J14))
       (or (not S) (not M16) (not Q16))
       (or (not H) (not Z16) (not D17))
       (or (not W18) (not R10) (= G20 I10))
       (or (not W18) (not R10) (= F20 H10))
       (or (not W18) (not R10) (= E20 G10))
       (or (not W18) (not R10) (= E10 G20))
       (or (not W18) (not R10) (= D10 F20))
       (or (not W18) (not R10) (= C10 E20))
       (or (not W18) (not B10) (not R10))
       (or (not V18) (not E11) (= C20 H10))
       (or (not V18) (not E11) (= D20 I10))
       (or (not V18) (not E11) (= B20 G10))
       (or (not V18) (not E11) (= E10 D20))
       (or (not V18) (not E11) (= D10 C20))
       (or (not V18) (not E11) (= C10 B20))
       (or (not V18) Q9 (not E11))
       (or (not U18) (not J11) (= Y19 G10))
       (or (not U18) (not J11) (= A20 I10))
       (or (not U18) (not J11) (= Z19 H10))
       (or (not U18) (not J11) (= E10 A20))
       (or (not U18) (not J11) (= D10 Z19))
       (or (not U18) (not J11) (= C10 Y19))
       (or (not M9) (not J11) (not U18))
       (or (not T18) (not X12) (= X19 I10))
       (or (not T18) (not X12) (= W19 H10))
       (or (not T18) (not X12) (= V19 G10))
       (or (not T18) (not X12) (= E10 X19))
       (or (not T18) (not X12) (= D10 W19))
       (or (not T18) (not X12) (= C10 V19))
       (or (not W7) (not X12) (not T18))
       (or (not P18) (not S12) (= L19 1))
       (or (not P18) (not S12) (= K19 W12))
       (or (not P18) (not S12) (= J19 G10))
       (or (not P18) (not S12) (= E10 L19))
       (or (not P18) (not S12) (= D10 K19))
       (or (not P18) (not S12) (= C10 J19))
       (or (not O18) (not W10) (= H19 H10))
       (or (not O18) (not W10) (= G19 G10))
       (or (not O18) (not W10) (= I19 I10))
       (or (not O18) (not W10) (= E10 I19))
       (or (not O18) (not W10) (= D10 H19))
       (or (not O18) (not W10) (= C10 G19))
       (or (not Z9) (not W10) (not O18))
       (or (not N18) (not A11) (= F19 I10))
       (or (not N18) (not A11) (= E19 H10))
       (or (not N18) (not A11) (= D19 G10))
       (or (not N18) (not A11) (= E10 F19))
       (or (not N18) (not A11) (= D10 E19))
       (or (not N18) (not A11) (= C10 D19))
       (or (not U9) (not A11) (not N18))
       (or (not M18) (not C11) (= B19 H10))
       (or (not M18) (not C11) (= A19 G10))
       (or (not M18) (not C11) (= C19 I10))
       (or (not M18) (not C11) (= E10 C19))
       (or (not M18) (not C11) (= D10 B19))
       (or (not M18) (not C11) (= C10 A19))
       (or (not M18) (not T9) (not C11))
       (or (not L18) (not Y10) (= Z18 1))
       (or (not L18) (not Y10) (= X18 3))
       (or (not L18) (not Y10) (= Y18 H10))
       (or (not L18) (not Y10) (= E10 Z18))
       (or (not L18) (not Y10) (= D10 Y18))
       (or (not L18) (not Y10) (= C10 X18))
       (or W9 (not Y10) (not L18))
       (or (not K18) (= L10 D10) (not I20))
       (or (not K18) (= P10 M10) (not I20))
       (or (not K18) (= O10 L10) (not I20))
       (or (not K18) (= N10 K10) (not I20))
       (or (not K18) (= M10 E10) (not I20))
       (or (not K18) (= K10 C10) (not I20))
       (or T7 (not Z12) (not J18))
       (or (not I18) (= U19 1) (not S18))
       (or (not I18) (= T19 H10) (not S18))
       (or (not I18) (= S19 G10) (not S18))
       (or (not I18) (= E10 U19) (not S18))
       (or (not I18) (= D10 T19) (not S18))
       (or (not I18) (= C10 S19) (not S18))
       (or (not E18) (= R19 1) (not R18))
       (or (not E18) (= Q19 H10) (not R18))
       (or (not E18) (= P19 G10) (not R18))
       (or (not E18) (= E10 R19) (not R18))
       (or (not E18) (= D10 Q19) (not R18))
       (or (not E18) (= C10 P19) (not R18))
       (or (not Z17) (and X17 A18) (and B18 J13))
       (or (not Y17) S7 (not D13))
       (or (not D18) (not X17) A)
       (or (not A18) (not X17) (not A))
       (or (not W17) (not X6) (not P13))
       (or (and Q17 V17) (not U17) (and W17 P13))
       (or B6 (not A14) (not S17))
       (or (and K15 J17) (and E17 K17) (not I17))
       (or (not Q18) (= O19 2) (not I17))
       (or (not Q18) (= N19 L17) (not I17))
       (or (not Q18) (= M19 G10) (not I17))
       (or (not Q18) (= E10 O19) (not I17))
       (or (not Q18) (= D10 N19) (not I17))
       (or (not Q18) (= C10 M19) (not I17))
       (or H (not Z16) (not H17))
       (or P (not R16) (not F17))
       (or E (not E17) (not K17))
       (or (not R17) (not E) (not E17))
       (or (not P) (not R16) (not V16))
       (or N (not U16) (not B17))
       (or (not N) (not U16) (not Y16))
       (or S (not M16) (not T16))
       (or Y (not Y15) (not J16))
       (or (and F16 I16) (not H16) (and J16 Y15))
       (or V (not H16) (not O16))
       (or (not V) (not H16) (not L16))
       (or (not Y) (not Y15) (not G16))
       (or (= C16 V15) (not W15) (not Z15))
       (or (= S5 C16) (not W15) (not Z15))
       (or (not Q15) (not E14) (= V15 U15))
       (or (not Q15) (not E14) (= U15 (- 12)))
       (or N5 (not E14) (not Q15))
       (or (not O15) (not G14) (= S15 (- 12)))
       (or (not O15) (not G14) (= V15 S15))
       (or K5 (not G14) (not O15))
       (or (not N15) (not I14) (= R15 (- 12)))
       (or (not N15) (not I14) (= V15 R15))
       (or H5 (not I14) (not N15))
       (or (= D16 V15) (not M15) (not A16))
       (or (= S5 D16) (not M15) (not A16))
       (or A1 (not M15) (not A16))
       (or (not A1) (not M15) (not X15))
       (or (= T15 D5) (not X14) (not P15))
       (or (= V15 T15) (not X14) (not P15))
       (or B2 (not U14) (not L15))
       (or (= J15 D15) (not U14) (not Y14))
       (or (= D5 C15) (not U14) (not Y14))
       (or (= D15 3) (not U14) (not Y14))
       (or (= C15 W14) (not U14) (not Y14))
       (or (not B2) (not U14) (not Y14))
       (or (= J15 F15) (not R14) (not Z14))
       (or (= F15 2) (not R14) (not Z14))
       (or (= E15 T14) (not R14) (not Z14))
       (or (= D5 E15) (not R14) (not Z14))
       (or (not C3) (not R14) (not Z14))
       (or C3 (not R14) (not V14))
       (or (= J15 E5) (not O14) (not B15))
       (or (= I15 Q14) (not O14) (not B15))
       (or (= E5 1) (not O14) (not B15))
       (or (= D5 I15) (not O14) (not B15))
       (or (not C4) (not O14) (not B15))
       (or C4 (not O14) (not S14))
       (or (not H5) (not I14) (not L14))
       (or (= J15 H15) (not K14) (not A15))
       (or (= H15 0) (not K14) (not A15))
       (or (= G15 N14) (not K14) (not A15))
       (or (= D5 G15) (not K14) (not A15))
       (or (not C5) (not K14) (not A15))
       (or C5 (not K14) (not P14))
       (or (not N5) (not E14) (not H14))
       (or (not F14) (not R5) (not C14))
       (or (not B14) (not E6) (not Y13))
       (or (not I13) (not S7) (not D13))
       (or (not H13) Z6 (not O13))
       (or (not H13) (not Z6) (not K13))
       (or P8 (not I12) (not P12))
       (or (not N12) (and P12 I12) (and L12 O12))
       (or (not N12) F8 (not V12))
       (or (not N12) (not F8) (not R12))
       (or (not J12) (not T8) (not F12))
       (or (not A12) (and Y11 B12) (and V11 C12))
       (or (not A12) X8 (not H12))
       (or (not A12) (not X8) (not E12))
       (or (not Q11) (and O11 R11) (and L11 S11))
       (or (not Q11) F9 (not X11))
       (or (not Q11) (not F9) (not U11))
       (or (not L11) J9 (not S11))
       (or (not L11) (not J9) (not P11))
       (or Y6 (not J13) (not M13))
       (or (not Y6) (not B18) (not J13))
       (or (not S6) (not S13) (not X13))
       (or S6 (not P17) (not S13))
       (or (not H6) (not W13) (not Z13))
       (or H6 (not O17) (not W13))
       (or (not M17) (= D (+ 8 F13)))
       (or (not C17) (and Z16 D17))
       (or (not Z16) (= H (= G 0)))
       (or (not Z16) (= F (+ 4 W16)))
       (or (not R16) (= P (= O 0)))
       (or (not P16) (and M16 Q16))
       (or (not M16) (= S (= R 0)))
       (or (not M16) (= Q (+ 36 F13)))
       (or (not K16) (and H16 L16))
       (or (not Y15) (= Y (= X 0)))
       (or (not Y15) (= W (+ 28 F13)))
       (or (not I14) (= H5 (= F5 0)))
       (or (not I14) (= G5 (+ 36 F13)))
       (or (not I14) (and G14 J14))
       (or (not G14) (= K5 (= I5 0)))
       (or (not G14) (= J5 (+ 32 F13)))
       (or (not G14) (and H14 E14))
       (or (not E14) (= N5 (= L5 0)))
       (or (not E14) (= M5 (+ 28 F13)))
       (or (not E14) (and F14 C14))
       (or (not C14) (= R5 (= P5 0)))
       (or (not C14) (= Q5 (+ 24 F13)))
       (or (not C14) (= O5 (+ 12 F13)))
       (or (not C14) (and A14 D14))
       a!1
       (or (not A14) (= B6 (= Z5 0)))
       (or (not A14) (= A6 (+ 8 F13)))
       (or (not A14) (= Y5 (* 4 X5)))
       (or (not A14) (= X5 (ite W5 1 0)))
       (or (not A14) (= V5 (+ (- 1) U5)))
       (or (not A14) (= U5 T5))
       (or (not A14) (and B14 Y13))
       (or (not Y13) (= E6 (= D6 0)))
       (or (not Y13) (= C6 V13))
       (or (not Y13) (and W13 Z13))
       a!2
       (or (not W13) (not (= G6 H6)))
       (or (not W13) (and S13 X13))
       (or (not S13) (= S6 (= R6 0)))
       (or (not S13) (= Q6 (+ 16 F13)))
       (or (not S13) (= N6 (+ 4 M6)))
       (or (not S13) (= U13 O6))
       (or (not S13) (= P6 (* 16 U13)))
       (or (not S13) (= L6 (+ 20 K6)))
       (or (not S13) (= J6 (+ 4 I6)))
       (or (not S13) (and P13 T13))
       (or (not P13) (= X6 (= W6 0)))
       (or (not P13) (= V6 (+ 28 T6)))
       (or (not P13) (= U6 F13))
       (or (not N13) (and H13 O13))
       (or (not L13) (and J13 M13))
       (or (not J13) (= Y6 (= G13 3)))
       (or (not J13) (and H13 K13))
       a!3
       (or (not D13) (= J7 (+ 4324 C13)))
       (or (not D13) (= H7 (+ 4348 C13)))
       (or (not D13) (= E7 (+ 4332 C13)))
       (or (not D13) (= B7 (+ 4352 C13)))
       (or (not D13) (= R7 (+ 28 Q7)))
       (or (not D13) (= P7 (+ 4 F13)))
       (or (not D13) (= O7 F13))
       (or (not D13) (= N7 (+ 4312 C13)))
       (or (not D13) (= M7 C13))
       (or (not D13) (= L7 (+ (- 141340) B13)))
       (or (not D13) (= K7 (+ 20 C13)))
       (or (not D13) (= I7 (+ 4344 C13)))
       (or (not D13) (= G7 (+ 4340 C13)))
       (or (not D13) (= F7 (+ 4336 C13)))
       (or (not D13) (= D7 (+ 40 F13)))
       (or (not D13) (= C7 B7))
       (or (not D13) (= A7 (+ (- 141440) B13)))
       (or (not D13) (and Z12 E13))
       (or (not Z12) (= T7 (= C13 0)))
       (or (not Z12) (and X12 A13))
       (or (not X12) (= W7 (and U7 V7)))
       (or (not X12) (= V7 (= I10 1)))
       (or (not X12) (= U7 (= I11 0)))
       (or (not X12) (and G11 Y12))
       (or (not S12) (= W12 (+ (- 1) H10)))
       (or (not S12) (= C8 (+ 28 B8)))
       (or (not S12) (= A8 Z7))
       (or (not S12) (= Z7 (+ 4 N11)))
       (or (not S12) (= Y7 X7))
       (or (not S12) (= X7 (+ 40 N11)))
       (or (not L12) (and I12 M12))
       (or (not I12) (= O8 (= N8 0)))
       (or (not I12) (not (= O8 P8)))
       (or (not I12) (= L8 (= K8 0)))
       (or (not I12) (not (= L8 M8)))
       (or (not I12) (= J8 I8))
       (or (not I12) (= I8 (+ 16 N11)))
       (or (not I12) (= H8 G8))
       (or (not I12) (= G8 (+ 12 N11)))
       (or (not I12) (and J12 F12))
       (or (not F12) (= T8 (= S8 0)))
       (or (not F12) (= R8 Q8))
       (or (not F12) (= Q8 (+ 8 N11)))
       (or (not D12) (and A12 E12))
       (or (not Y11) (and V11 Z11))
       (or (not V11) (= B9 (= A9 0)))
       (or (not V11) (= Z8 Y8))
       (or (not V11) (= Y8 (+ 32 N11)))
       (or (not O11) (and L11 P11))
       (or (not J11) (= M9 (and L9 K9)))
       (or (not J11) (= K9 (= I11 1)))
       (or (not J11) (= L9 (= I10 2)))
       (or (not J11) (and G11 K11))
       a!4
       (or (not G11) (and E11 H11))
       a!5
       (or (not E11) (= Q9 (or O9 P9)))
       (or (not E11) (= P9 (= I10 0)))
       (or (not E11) (and J10 F11))
       (or (not C11) (= T9 (and R9 S9)))
       (or (not C11) (= S9 (= H10 0)))
       (or (not C11) (= R9 (= G10 3)))
       (or (not C11) (and A11 D11))
       (or (not A11) (= U9 (= V10 0)))
       (or (not A11) (and T10 B11))
       (or (not Y10) (= W9 (= V9 0)))
       (or (not Y10) (and W10 Z10))
       (or (not W10) (= Z9 (and X9 Y9)))
       (or (not W10) (= Y9 (= G10 1)))
       (or (not W10) (= X9 (= V10 1)))
       (or (not W10) (and T10 X10))
       a!6
       (or (not T10) (and R10 U10))
       (or (not R10) (= B10 (= Q10 1)))
       (or (not R10) (and J10 S10))
       (or M8 (not I12))
       (or (not H20) (and K18 I20))
       (or (not I18) (and J18 Z12))
       (or (not C18) (and X17 D18))
       (or (not X17) (= A (= G13 1)))
       (or (not X17) (and Y17 D13))
       (or (not U17) (= C (+ 28 B)))
       (or (not I17) (= L17 (+ 1 H10)))
       (or (not E17) (= E (= S5 0)))
       (or (not X16) (and U16 Y16))
       (or (not U16) (= M (= L 0)))
       (or (not U16) (not (= M N)))
       (or (not U16) (= J (= I 0)))
       (or (not U16) (not (= J K)))
       (or (not U16) (and V16 R16))
       (or (not U16) K)
       (or (not H16) (= V (= U 0)))
       (or (not H16) (= T (+ 32 F13)))
       (or (not F16) (and G16 Y15))
       (or (not W15) (and M15 X15))
       (or (not M15) (= A1 (= Z 0)))
       (or (not K15) (and U14 L15))
       (or (not U14) (= B2 (= W14 0)))
       (or (not U14) (= A2 (+ 184 C1)))
       (or (not U14) (= Z1 (+ 180 C1)))
       (or (not U14) (= Y1 (+ 168 C1)))
       (or (not U14) (= X1 (+ 164 C1)))
       (or (not U14) (= W1 (+ 152 C1)))
       (or (not U14) (= V1 (+ 148 C1)))
       (or (not U14) (= U1 (+ 136 C1)))
       (or (not U14) (= T1 (+ 132 C1)))
       (or (not U14) (= S1 (+ 64 C1)))
       (or (not U14) (= R1 (+ Q1 B1)))
       (or (not U14) (= P1 (+ 88 C1)))
       (or (not U14) (= O1 (+ 112 C1)))
       (or (not U14) (= N1 (+ 116 C1)))
       (or (not U14) (= M1 (+ 60 C1)))
       (or (not U14) (= L1 (+ 48 C1)))
       (or (not U14) (= K1 (* 256 J1)))
       (or (not U14) (= I1 H1))
       (or (not U14) (= G1 (+ 128 C1)))
       (or (not U14) (= F1 E1))
       (or (not U14) (= E1 (+ 124 C1)))
       (or (not U14) (= D1 (+ 40 C1)))
       (or (not U14) (= B1 (* 12 U13)))
       (or (not U14) (and R14 V14))
       (or (not R14) (= C3 (= T14 0)))
       (or (not R14) (= B3 (+ 184 D2)))
       (or (not R14) (= A3 (+ 180 D2)))
       (or (not R14) (= Z2 (+ 168 D2)))
       (or (not R14) (= Y2 (+ 164 D2)))
       (or (not R14) (= X2 (+ 152 D2)))
       (or (not R14) (= W2 (+ 148 D2)))
       (or (not R14) (= V2 (+ 136 D2)))
       (or (not R14) (= U2 (+ 132 D2)))
       (or (not R14) (= T2 (+ 64 D2)))
       (or (not R14) (= S2 (+ R2 C2)))
       (or (not R14) (= Q2 (+ 88 D2)))
       (or (not R14) (= P2 (+ 112 D2)))
       (or (not R14) (= O2 (+ 116 D2)))
       (or (not R14) (= N2 (+ 60 D2)))
       (or (not R14) (= M2 (+ 48 D2)))
       (or (not R14) (= L2 (* 256 K2)))
       (or (not R14) (= J2 I2))
       (or (not R14) (= H2 (+ 128 D2)))
       (or (not R14) (= G2 F2))
       (or (not R14) (= F2 (+ 124 D2)))
       (or (not R14) (= E2 (+ 40 D2)))
       (or (not R14) (= C2 (* 8 U13)))
       (or (not R14) (and O14 S14))
       (or (not O14) (= C4 (= Q14 0)))
       (or (not O14) (= B4 (+ 184 D3)))
       (or (not O14) (= A4 (+ 180 D3)))
       (or (not O14) (= Z3 (+ 168 D3)))
       (or (not O14) (= Y3 (+ 164 D3)))
       (or (not O14) (= X3 (+ 152 D3)))
       (or (not O14) (= W3 (+ 148 D3)))
       (or (not O14) (= V3 (+ 136 D3)))
       (or (not O14) (= U3 (+ 132 D3)))
       (or (not O14) (= T3 (+ 64 D3)))
       (or (not O14) (= S3 (+ R3 M14)))
       (or (not O14) (= Q3 (+ 88 D3)))
       (or (not O14) (= P3 (+ 112 D3)))
       (or (not O14) (= O3 (+ 116 D3)))
       (or (not O14) (= N3 (+ 60 D3)))
       (or (not O14) (= M3 (+ 48 D3)))
       (or (not O14) (= L3 (* 256 K3)))
       (or (not O14) (= J3 I3))
       (or (not O14) (= H3 (+ 128 D3)))
       (or (not O14) (= G3 F3))
       (or (not O14) (= F3 (+ 124 D3)))
       (or (not O14) (= E3 (+ 40 D3)))
       (or (not O14) (and K14 P14))
       (or (not K14) (= C5 (= N14 0)))
       (or (not K14) (= B5 (+ 184 D4)))
       (or (not K14) (= A5 (+ 180 D4)))
       (or (not K14) (= Z4 (+ W4 U13)))
       (or (not K14) (= Y4 (+ 168 D4)))
       (or (not K14) (= X4 (+ 164 D4)))
       (or (not K14) (= W4 (* 2 U13)))
       (or (not K14) (= V4 (+ 152 D4)))
       (or (not K14) (= U4 (+ 148 D4)))
       (or (not K14) (= T4 (+ 136 D4)))
       (or (not K14) (= S4 (+ 132 D4)))
       (or (not K14) (= R4 (+ 64 D4)))
       (or (not K14) (= Q4 (+ 88 D4)))
       (or (not K14) (= P4 (+ 112 D4)))
       (or (not K14) (= O4 (+ 116 D4)))
       (or (not K14) (= N4 (+ 60 D4)))
       (or (not K14) (= M4 (+ 48 D4)))
       (or (not K14) (= L4 (* 256 K4)))
       (or (not K14) (= J4 I4))
       (or (not K14) (= H4 (+ 128 D4)))
       (or (not K14) (= G4 F4))
       (or (not K14) (= F4 (+ 124 D4)))
       (or (not K14) (= E4 (+ 40 D4)))
       (or (not K14) (= M14 (* 4 U13)))
       (or (not K14) (and L14 I14))
       a!7
       (or (not H13) (and I13 D13))
       (or (not Q12) (and N12 R12))
       (or (not N12) (= F8 (= E8 0)))
       (or (not N12) (= D8 (+ 4 K12)))
       (or (not A12) (= X8 (= W8 0)))
       (or (not A12) (= V8 U8))
       (or (not A12) (= U8 (+ 36 N11)))
       (or (not T11) (and Q11 U11))
       (or (not Q11) (= F9 (= E9 0)))
       (or (not Q11) (= D9 C9))
       (or (not Q11) (= C9 (+ 28 N11)))
       (or (not L11) (= J9 (= I9 0)))
       (or (not L11) (= H9 G9))
       (or (not L11) (= G9 (+ 24 N11)))
       (or (not L11) (and J11 M11))
       (= H20 true)
       (not (= (<= 1 Q10) F10))
       (= 1 v_530)))
      )
      (main_1 v_530 N10 O10 P10)
    )
  )
)
(assert
  (forall ( (A Bool) (B Bool) (C Bool) (D Bool) (E Int) (F Bool) (G Bool) (H Bool) (I Bool) (J Bool) (K Bool) (L Bool) (M Int) (N Int) (O Int) (P Bool) (Q Int) (R Bool) (S Bool) (T Bool) (U Bool) (V Int) (W Bool) (X Bool) (Y Bool) (Z Bool) (A1 Bool) (B1 Bool) (C1 Bool) (D1 Bool) (E1 Bool) (F1 Bool) (G1 Bool) (H1 Bool) (I1 Bool) (J1 Bool) (K1 Bool) (L1 Bool) (M1 Bool) (v_39 Int) (v_40 Int) ) 
    (=>
      (and
        (main_1 v_39 M N O)
        (let ((a!1 (or (not T) (not (= (<= 1 V) J)))))
  (and (= 1 v_39)
       (or (and G1 K1) (and E1 J1) (not I1))
       (or I (not Z) (not W))
       (or (not L) (not P) (not S))
       (or K (not R) (not U))
       (or J (not B1) (not T))
       (or (not J) (not T) (not X))
       (or (not Y) (not F) (not F1))
       (or D (not A1) (not D1))
       (or C (not C1) (not H1))
       (or (not A1) (= D (= V 0)))
       (or (not A1) (and T B1))
       (or (not L1) (and M1 I1))
       (or (not G1) (and C1 H1))
       (or (not E1) (and Y F1))
       (or (not C1) (= C (and A B)))
       (or (not C1) (= B (= N 0)))
       (or (not C1) (= A (= M 3)))
       (or (not C1) (and D1 A1))
       (or (not Y) (= F (= E 0)))
       (or (not Y) (and W Z))
       (or (not W) (= I (and G H)))
       (or (not W) (= H (= M 1)))
       (or (not W) (= G (= V 1)))
       (or (not W) (and T X))
       a!1
       (or (not T) (and R U))
       (or (not R) (= K (= Q 1)))
       (or (not R) (and P S))
       (not I1)
       (= L1 true)
       (not (= (<= 1 Q) L))
       (= 2 v_40)))
      )
      (main_1 v_40 M N O)
    )
  )
)
(assert
  (forall ( (A Int) (B Int) (C Int) (v_3 Int) ) 
    (=>
      (and
        (main_1 v_3 A B C)
        (= 2 v_3)
      )
      false
    )
  )
)

(check-sat)
(exit)
